0
94
9
78
49
177
1
169
156
186
73
18
104
104
113
34
176
125
122
112
20
114
47
49
188
107
22
175
120
109
3
14
170
116
145
99
175
121
16
50
152
69
155
99
9
182
137
25
161
19
68
197
76
138
6
67
169
72
49
34
11
46
62
162
98
22
66
196
181
183
133
83
108
9
132
41
61
91
197
124
87
149
80
71
57
127
18
173
161
27
34
165
178
29
170
18
59
86
8
126
36
